benchmark/results/graph__15-1000-0.10-04_6/graph__15-1000-0.10-04_6_QuintonOs_Benders_primal_sub.lp
\ This file has been generated by DOcplex
\ ENCODING=ISO-8859-1
\Problem name: Quinton Bounded Benders_primal_sub

Maximize
 obj: tau
Subject To
 c1: tau <= 0.001098901099
 c2: y_a0_proc_0 + y_a0_proc_3 - tau = 0
 c3: y_a0_proc_0 <= 1
 c4: y_a0_proc_3 <= 0
 c5: tau <= 0.001076426265
 c6: y_a1_proc_1 - tau = 0
 c7: y_a1_proc_1 <= 1
 c8: tau <= 0.000941619586
 c9: y_a2_proc_1 + y_a2_proc_2 + y_a2_proc_3 - tau = 0
 c10: y_a2_proc_1 <= 1
 c11: y_a2_proc_2 <= 0
 c12: y_a2_proc_3 <= 0
 c13: tau <= 0.001293661061
 c14: y_a3_proc_0 - tau = 0
 c15: y_a3_proc_0 <= 1
 c16: tau <= 0.000795544948
 c17: y_a4_proc_0 + y_a4_proc_1 + y_a4_proc_2 - tau = 0
 c18: y_a4_proc_0 <= 1
 c19: y_a4_proc_1 <= 0
 c20: y_a4_proc_2 <= 0
 c21: tau <= 0.001414427157
 c22: y_a5_proc_1 + y_a5_proc_2 - tau = 0
 c23: y_a5_proc_1 <= 1
 c24: y_a5_proc_2 <= 0
 c25: tau <= 0.001269035533
 c26: y_a6_proc_0 + y_a6_proc_1 + y_a6_proc_2 + y_a6_proc_3 - tau = 0
 c27: y_a6_proc_0 <= 1
 c28: y_a6_proc_1 <= 0
 c29: y_a6_proc_2 <= 0
 c30: y_a6_proc_3 <= 0
 c31: tau <= 0.000789889415
 c32: y_a7_proc_0 + y_a7_proc_1 + y_a7_proc_3 - tau = 0
 c33: y_a7_proc_0 <= 0
 c34: y_a7_proc_1 <= 0
 c35: y_a7_proc_3 <= 1
 c36: tau <= 0.001321003963
 c37: y_a8_proc_0 + y_a8_proc_1 + y_a8_proc_2 + y_a8_proc_3 - tau = 0
 c38: y_a8_proc_0 <= 0
 c39: y_a8_proc_1 <= 0
 c40: y_a8_proc_2 <= 1
 c41: y_a8_proc_3 <= 0
 c42: tau <= 0.001193317422
 c43: y_a9_proc_0 + y_a9_proc_1 + y_a9_proc_2 + y_a9_proc_3 - tau = 0
 c44: y_a9_proc_0 <= 0
 c45: y_a9_proc_1 <= 0
 c46: y_a9_proc_2 <= 1
 c47: y_a9_proc_3 <= 0
 c48: tau <= 0.001972386588
 c49: y_a10_proc_1 + y_a10_proc_2 + y_a10_proc_3 - tau = 0
 c50: y_a10_proc_1 <= 0
 c51: y_a10_proc_2 <= 0
 c52: y_a10_proc_3 <= 1
 c53: tau <= 0.005681818182
 c54: y_a11_proc_1 + y_a11_proc_3 - tau = 0
 c55: y_a11_proc_1 <= 1
 c56: y_a11_proc_3 <= 0
 c57: tau <= 0.001095290252
 c58: y_a12_proc_0 + y_a12_proc_2 + y_a12_proc_3 - tau = 0
 c59: y_a12_proc_0 <= 0
 c60: y_a12_proc_2 <= 1
 c61: y_a12_proc_3 <= 0
 c62: tau <= 0.003703703704
 c63: y_a13_proc_1 - tau = 0
 c64: y_a13_proc_1 <= 1
 c65: tau <= 0.001851851852
 c66: y_a14_proc_0 + y_a14_proc_1 + y_a14_proc_2 - tau = 0
 c67: y_a14_proc_0 <= 0
 c68: y_a14_proc_1 <= 0
 c69: y_a14_proc_2 <= 1
 c70: u_a0 - u_a1 - 929 y_a1_proc_1 >= 0
 c71: u_a1 - u_a2 - 1062 y_a2_proc_1 - 1097 y_a2_proc_2 - 1208 y_a2_proc_3 >= 0
 c72: u_a3 - u_a0 - 910 y_a0_proc_0 - 1123 y_a0_proc_3 >= 0
 c73: u_a1 - u_a4 - 1257 y_a4_proc_0 - 1298 y_a4_proc_1 - 1075 y_a4_proc_2 >= 0
 c74: u_a4 - u_a5 - 707 y_a5_proc_1 - 1046 y_a5_proc_2 >= -1
 c75: u_a6 - u_a3 - 773 y_a3_proc_0 >= -1
 c76: u_a2 - u_a7 - 1299 y_a7_proc_0 - 999 y_a7_proc_1 - 1266 y_a7_proc_3 >= -1
 c77: u_a5 - u_a8 - 1111 y_a8_proc_0 - 976 y_a8_proc_1 - 757 y_a8_proc_2
      - 1287 y_a8_proc_3 >= 0
 c78: u_a9 - u_a6 - 788 y_a6_proc_0 - 1064 y_a6_proc_1 - 848 y_a6_proc_2
      - 764 y_a6_proc_3 >= 0
 c79: u_a10 - u_a4 - 1257 y_a4_proc_0 - 1298 y_a4_proc_1 - 1075 y_a4_proc_2 >= 
      0
 c80: u_a11 - u_a4 - 1257 y_a4_proc_0 - 1298 y_a4_proc_1 - 1075 y_a4_proc_2 >= 
      0
 c81: u_a5 - u_a12 - 1028 y_a12_proc_0 - 913 y_a12_proc_2 - 951 y_a12_proc_3
       >= 0
 c82: u_a10 - u_a13 - 270 y_a13_proc_1 >= 0
 c83: u_a13 - u_a14 - 1157 y_a14_proc_0 - 695 y_a14_proc_1 - 540 y_a14_proc_2
       >= -1
 c84: u_a14 - u_a9 - 1109 y_a9_proc_0 - 1170 y_a9_proc_1 - 838 y_a9_proc_2
      - 927 y_a9_proc_3 >= 0
 c85: u_a14 - u_a7 - 1299 y_a7_proc_0 - 999 y_a7_proc_1 - 1266 y_a7_proc_3 >= 0
 c86: u_a13 - u_a8 - 1111 y_a8_proc_0 - 976 y_a8_proc_1 - 757 y_a8_proc_2
      - 1287 y_a8_proc_3 >= -1
 c87: u_a12 - u_a3 - 773 y_a3_proc_0 >= -1
 c88: u_a7 - u_a8 - 1111 y_a8_proc_0 - 976 y_a8_proc_1 - 757 y_a8_proc_2
      - 1287 y_a8_proc_3 >= 0
 c89: u_a8 - u_a0 - 910 y_a0_proc_0 - 1123 y_a0_proc_3 >= 0
 c90: u_a13 - u_a10 - 1065 y_a10_proc_1 - 1246 y_a10_proc_2 - 507 y_a10_proc_3
       >= -1
 c91: u_a9 - u_a13 - 270 y_a13_proc_1 >= 0
 c92: u_a3 - u_a12 - 1028 y_a12_proc_0 - 913 y_a12_proc_2 - 951 y_a12_proc_3
       >= 0
 c93: u_a10 - u_a9 - 1109 y_a9_proc_0 - 1170 y_a9_proc_1 - 838 y_a9_proc_2
      - 927 y_a9_proc_3 >= -1
 c94: u_a2 - u_a10 - 1065 y_a10_proc_1 - 1246 y_a10_proc_2 - 507 y_a10_proc_3
       >= 0
 c95: u_a2 - u_a11 - 176 y_a11_proc_1 - 1107 y_a11_proc_3 >= 0
 c96: u_a2 - u_a0 - 1123 y_a0_proc_3 >= -2617
 c97: u_a0 - u_a2 - 1208 y_a2_proc_3 >= -2580
 c98: u_a3 - u_a0 - 910 y_a0_proc_0 >= 0
 c99: u_a0 - u_a3 - 773 y_a3_proc_0 >= -1
 c100: u_a4 - u_a0 - 910 y_a0_proc_0 >= -1
 c101: u_a0 - u_a4 - 1257 y_a4_proc_0 >= 0
 c102: u_a6 - u_a0 - 910 y_a0_proc_0 >= -1
 c103: u_a6 - u_a0 - 1123 y_a0_proc_3 >= -2599
 c104: u_a0 - u_a6 - 788 y_a6_proc_0 >= 0
 c105: u_a0 - u_a6 - 764 y_a6_proc_3 >= -2598
 c106: u_a7 - u_a0 - 910 y_a0_proc_0 >= -1318
 c107: u_a7 - u_a0 - 1123 y_a0_proc_3 >= -1318
 c108: u_a0 - u_a7 - 1299 y_a7_proc_0 >= -1281
 c109: u_a0 - u_a7 - 1266 y_a7_proc_3 >= -1281
 c110: u_a8 - u_a0 - 910 y_a0_proc_0 >= -1318
 c111: u_a8 - u_a0 - 1123 y_a0_proc_3 >= -2617
 c112: u_a0 - u_a8 - 1111 y_a8_proc_0 >= -1281
 c113: u_a0 - u_a8 - 1287 y_a8_proc_3 >= -2580
 c114: u_a9 - u_a0 - 910 y_a0_proc_0 >= -1318
 c115: u_a9 - u_a0 - 1123 y_a0_proc_3 >= -2617
 c116: u_a0 - u_a9 - 1109 y_a9_proc_0 >= -1281
 c117: u_a0 - u_a9 - 927 y_a9_proc_3 >= -2580
 c118: u_a10 - u_a0 - 1123 y_a0_proc_3 >= -1318
 c119: u_a0 - u_a10 - 507 y_a10_proc_3 >= -1281
 c120: u_a11 - u_a0 - 1123 y_a0_proc_3 >= -2617
 c121: u_a0 - u_a11 - 1107 y_a11_proc_3 >= -2580
 c122: u_a12 - u_a0 - 910 y_a0_proc_0 >= -1281
 c123: u_a12 - u_a0 - 1123 y_a0_proc_3 >= -2580
 c124: u_a0 - u_a12 - 1028 y_a12_proc_0 >= -1318
 c125: u_a0 - u_a12 - 951 y_a12_proc_3 >= -2617
 c126: u_a14 - u_a0 - 910 y_a0_proc_0 >= -1318
 c127: u_a0 - u_a14 - 1157 y_a14_proc_0 >= -1281
 c128: u_a2 - u_a1 - 929 y_a1_proc_1 >= -1
 c129: u_a1 - u_a2 - 1062 y_a2_proc_1 >= 0
 c130: u_a4 - u_a1 - 929 y_a1_proc_1 >= -1318
 c131: u_a1 - u_a4 - 1298 y_a4_proc_1 >= -1281
 c132: u_a5 - u_a1 - 929 y_a1_proc_1 >= 0
 c133: u_a1 - u_a5 - 707 y_a5_proc_1 >= -1
 c134: u_a6 - u_a1 - 929 y_a1_proc_1 >= -1318
 c135: u_a1 - u_a6 - 1064 y_a6_proc_1 >= -1281
 c136: u_a7 - u_a1 - 929 y_a1_proc_1 >= -1318
 c137: u_a1 - u_a7 - 999 y_a7_proc_1 >= -1281
 c138: u_a8 - u_a1 - 929 y_a1_proc_1 >= -1318
 c139: u_a1 - u_a8 - 976 y_a8_proc_1 >= -1281
 c140: u_a9 - u_a1 - 929 y_a1_proc_1 >= -1281
 c141: u_a1 - u_a9 - 1170 y_a9_proc_1 >= -1318
 c142: u_a10 - u_a1 - 929 y_a1_proc_1 >= -1318
 c143: u_a1 - u_a10 - 1065 y_a10_proc_1 >= -1281
 c144: u_a11 - u_a1 - 929 y_a1_proc_1 >= -1
 c145: u_a1 - u_a11 - 176 y_a11_proc_1 >= 0
 c146: u_a13 - u_a1 - 929 y_a1_proc_1 >= -1
 c147: u_a1 - u_a13 - 270 y_a13_proc_1 >= 0
 c148: u_a14 - u_a1 - 929 y_a1_proc_1 >= -1318
 c149: u_a1 - u_a14 - 695 y_a14_proc_1 >= -1281
 c150: u_a4 - u_a2 - 1097 y_a2_proc_2 >= -2617
 c151: u_a4 - u_a2 - 1062 y_a2_proc_1 >= -1318
 c152: u_a2 - u_a4 - 1075 y_a4_proc_2 >= -2580
 c153: u_a2 - u_a4 - 1298 y_a4_proc_1 >= -1281
 c154: u_a5 - u_a2 - 1097 y_a2_proc_2 >= -2598
 c155: u_a5 - u_a2 - 1062 y_a2_proc_1 >= 0
 c156: u_a2 - u_a5 - 1046 y_a5_proc_2 >= -2599
 c157: u_a2 - u_a5 - 707 y_a5_proc_1 >= -1
 c158: u_a6 - u_a2 - 1097 y_a2_proc_2 >= -2617
 c159: u_a6 - u_a2 - 1062 y_a2_proc_1 >= -1318
 c160: u_a6 - u_a2 - 1208 y_a2_proc_3 >= -2617
 c161: u_a2 - u_a6 - 848 y_a6_proc_2 >= -2580
 c162: u_a2 - u_a6 - 1064 y_a6_proc_1 >= -1281
 c163: u_a2 - u_a6 - 764 y_a6_proc_3 >= -2580
 c164: u_a7 - u_a2 - 1062 y_a2_proc_1 >= -1318
 c165: u_a7 - u_a2 - 1208 y_a2_proc_3 >= -1318
 c166: u_a2 - u_a7 - 999 y_a7_proc_1 >= -1281
 c167: u_a2 - u_a7 - 1266 y_a7_proc_3 >= -1281
 c168: u_a8 - u_a2 - 1097 y_a2_proc_2 >= -1318
 c169: u_a8 - u_a2 - 1062 y_a2_proc_1 >= -1318
 c170: u_a8 - u_a2 - 1208 y_a2_proc_3 >= -2617
 c171: u_a2 - u_a8 - 757 y_a8_proc_2 >= -1281
 c172: u_a2 - u_a8 - 976 y_a8_proc_1 >= -1281
 c173: u_a2 - u_a8 - 1287 y_a8_proc_3 >= -2580
 c174: u_a9 - u_a2 - 1097 y_a2_proc_2 >= -1318
 c175: u_a9 - u_a2 - 1062 y_a2_proc_1 >= -1318
 c176: u_a9 - u_a2 - 1208 y_a2_proc_3 >= -2617
 c177: u_a2 - u_a9 - 838 y_a9_proc_2 >= -1281
 c178: u_a2 - u_a9 - 1170 y_a9_proc_1 >= -1281
 c179: u_a2 - u_a9 - 927 y_a9_proc_3 >= -2580
 c180: u_a10 - u_a2 - 1097 y_a2_proc_2 >= -2617
 c181: u_a10 - u_a2 - 1062 y_a2_proc_1 >= -1318
 c182: u_a10 - u_a2 - 1208 y_a2_proc_3 >= -1318
 c183: u_a2 - u_a10 - 1246 y_a10_proc_2 >= -2580
 c184: u_a2 - u_a10 - 1065 y_a10_proc_1 >= -1281
 c185: u_a2 - u_a10 - 507 y_a10_proc_3 >= -1281
 c186: u_a11 - u_a2 - 1062 y_a2_proc_1 >= -1
 c187: u_a11 - u_a2 - 1208 y_a2_proc_3 >= -2599
 c188: u_a2 - u_a11 - 176 y_a11_proc_1 >= 0
 c189: u_a2 - u_a11 - 1107 y_a11_proc_3 >= -2598
 c190: u_a12 - u_a2 - 1097 y_a2_proc_2 >= -1318
 c191: u_a12 - u_a2 - 1208 y_a2_proc_3 >= -2617
 c192: u_a2 - u_a12 - 913 y_a12_proc_2 >= -1281
 c193: u_a2 - u_a12 - 951 y_a12_proc_3 >= -2580
 c194: u_a13 - u_a2 - 1062 y_a2_proc_1 >= -1
 c195: u_a2 - u_a13 - 270 y_a13_proc_1 >= 0
 c196: u_a14 - u_a2 - 1097 y_a2_proc_2 >= -1318
 c197: u_a14 - u_a2 - 1062 y_a2_proc_1 >= -1318
 c198: u_a2 - u_a14 - 540 y_a14_proc_2 >= -1281
 c199: u_a2 - u_a14 - 695 y_a14_proc_1 >= -1281
 c200: u_a4 - u_a3 - 773 y_a3_proc_0 >= -1
 c201: u_a3 - u_a4 - 1257 y_a4_proc_0 >= 0
 c202: u_a6 - u_a3 - 773 y_a3_proc_0 >= -1
 c203: u_a3 - u_a6 - 788 y_a6_proc_0 >= 0
 c204: u_a7 - u_a3 - 773 y_a3_proc_0 >= -1318
 c205: u_a3 - u_a7 - 1299 y_a7_proc_0 >= -1281
 c206: u_a8 - u_a3 - 773 y_a3_proc_0 >= -1281
 c207: u_a3 - u_a8 - 1111 y_a8_proc_0 >= -1318
 c208: u_a9 - u_a3 - 773 y_a3_proc_0 >= -1318
 c209: u_a3 - u_a9 - 1109 y_a9_proc_0 >= -1281
 c210: u_a12 - u_a3 - 773 y_a3_proc_0 >= -1318
 c211: u_a3 - u_a12 - 1028 y_a12_proc_0 >= -1281
 c212: u_a14 - u_a3 - 773 y_a3_proc_0 >= -1318
 c213: u_a3 - u_a14 - 1157 y_a14_proc_0 >= -1281
 c214: u_a5 - u_a4 - 1075 y_a4_proc_2 >= -2617
 c215: u_a5 - u_a4 - 1298 y_a4_proc_1 >= -1318
 c216: u_a4 - u_a5 - 1046 y_a5_proc_2 >= -2580
 c217: u_a4 - u_a5 - 707 y_a5_proc_1 >= -1281
 c218: u_a6 - u_a4 - 1257 y_a4_proc_0 >= 0
 c219: u_a6 - u_a4 - 1075 y_a4_proc_2 >= -2598
 c220: u_a6 - u_a4 - 1298 y_a4_proc_1 >= -2598
 c221: u_a4 - u_a6 - 788 y_a6_proc_0 >= -1
 c222: u_a4 - u_a6 - 848 y_a6_proc_2 >= -2599
 c223: u_a4 - u_a6 - 1064 y_a6_proc_1 >= -2599
 c224: u_a7 - u_a4 - 1257 y_a4_proc_0 >= -1318
 c225: u_a7 - u_a4 - 1298 y_a4_proc_1 >= -2617
 c226: u_a4 - u_a7 - 1299 y_a7_proc_0 >= -1281
 c227: u_a4 - u_a7 - 999 y_a7_proc_1 >= -2580
 c228: u_a8 - u_a4 - 1257 y_a4_proc_0 >= -1318
 c229: u_a8 - u_a4 - 1075 y_a4_proc_2 >= -1318
 c230: u_a8 - u_a4 - 1298 y_a4_proc_1 >= -2617
 c231: u_a4 - u_a8 - 1111 y_a8_proc_0 >= -1281
 c232: u_a4 - u_a8 - 757 y_a8_proc_2 >= -1281
 c233: u_a4 - u_a8 - 976 y_a8_proc_1 >= -2580
 c234: u_a9 - u_a4 - 1257 y_a4_proc_0 >= -1281
 c235: u_a9 - u_a4 - 1075 y_a4_proc_2 >= -1281
 c236: u_a9 - u_a4 - 1298 y_a4_proc_1 >= -2580
 c237: u_a4 - u_a9 - 1109 y_a9_proc_0 >= -1318
 c238: u_a4 - u_a9 - 838 y_a9_proc_2 >= -1318
 c239: u_a4 - u_a9 - 1170 y_a9_proc_1 >= -2617
 c240: u_a10 - u_a4 - 1075 y_a4_proc_2 >= -2617
 c241: u_a10 - u_a4 - 1298 y_a4_proc_1 >= -2617
 c242: u_a4 - u_a10 - 1246 y_a10_proc_2 >= -2580
 c243: u_a4 - u_a10 - 1065 y_a10_proc_1 >= -2580
 c244: u_a11 - u_a4 - 1298 y_a4_proc_1 >= -1318
 c245: u_a4 - u_a11 - 176 y_a11_proc_1 >= -1281
 c246: u_a12 - u_a4 - 1257 y_a4_proc_0 >= -1318
 c247: u_a12 - u_a4 - 1075 y_a4_proc_2 >= -1318
 c248: u_a4 - u_a12 - 1028 y_a12_proc_0 >= -1281
 c249: u_a4 - u_a12 - 913 y_a12_proc_2 >= -1281
 c250: u_a13 - u_a4 - 1298 y_a4_proc_1 >= -1281
 c251: u_a4 - u_a13 - 270 y_a13_proc_1 >= -1318
 c252: u_a14 - u_a4 - 1257 y_a4_proc_0 >= -1318
 c253: u_a14 - u_a4 - 1075 y_a4_proc_2 >= -1318
 c254: u_a14 - u_a4 - 1298 y_a4_proc_1 >= -2617
 c255: u_a4 - u_a14 - 1157 y_a14_proc_0 >= -1281
 c256: u_a4 - u_a14 - 540 y_a14_proc_2 >= -1281
 c257: u_a4 - u_a14 - 695 y_a14_proc_1 >= -2580
 c258: u_a6 - u_a5 - 1046 y_a5_proc_2 >= -2617
 c259: u_a6 - u_a5 - 707 y_a5_proc_1 >= -1318
 c260: u_a5 - u_a6 - 848 y_a6_proc_2 >= -2580
 c261: u_a5 - u_a6 - 1064 y_a6_proc_1 >= -1281
 c262: u_a7 - u_a5 - 707 y_a5_proc_1 >= -1318
 c263: u_a5 - u_a7 - 999 y_a7_proc_1 >= -1281
 c264: u_a8 - u_a5 - 1046 y_a5_proc_2 >= -1318
 c265: u_a8 - u_a5 - 707 y_a5_proc_1 >= -1318
 c266: u_a5 - u_a8 - 757 y_a8_proc_2 >= -1281
 c267: u_a5 - u_a8 - 976 y_a8_proc_1 >= -1281
 c268: u_a9 - u_a5 - 1046 y_a5_proc_2 >= -1318
 c269: u_a9 - u_a5 - 707 y_a5_proc_1 >= -1318
 c270: u_a5 - u_a9 - 838 y_a9_proc_2 >= -1281
 c271: u_a5 - u_a9 - 1170 y_a9_proc_1 >= -1281
 c272: u_a10 - u_a5 - 1046 y_a5_proc_2 >= -2617
 c273: u_a10 - u_a5 - 707 y_a5_proc_1 >= -1318
 c274: u_a5 - u_a10 - 1246 y_a10_proc_2 >= -2580
 c275: u_a5 - u_a10 - 1065 y_a10_proc_1 >= -1281
 c276: u_a11 - u_a5 - 707 y_a5_proc_1 >= -1
 c277: u_a5 - u_a11 - 176 y_a11_proc_1 >= 0
 c278: u_a12 - u_a5 - 1046 y_a5_proc_2 >= -1318
 c279: u_a5 - u_a12 - 913 y_a12_proc_2 >= -1281
 c280: u_a13 - u_a5 - 707 y_a5_proc_1 >= -1
 c281: u_a5 - u_a13 - 270 y_a13_proc_1 >= 0
 c282: u_a14 - u_a5 - 1046 y_a5_proc_2 >= -1318
 c283: u_a14 - u_a5 - 707 y_a5_proc_1 >= -1318
 c284: u_a5 - u_a14 - 540 y_a14_proc_2 >= -1281
 c285: u_a5 - u_a14 - 695 y_a14_proc_1 >= -1281
 c286: u_a7 - u_a6 - 788 y_a6_proc_0 >= -1318
 c287: u_a7 - u_a6 - 1064 y_a6_proc_1 >= -2617
 c288: u_a7 - u_a6 - 764 y_a6_proc_3 >= -1318
 c289: u_a6 - u_a7 - 1299 y_a7_proc_0 >= -1281
 c290: u_a6 - u_a7 - 999 y_a7_proc_1 >= -2580
 c291: u_a6 - u_a7 - 1266 y_a7_proc_3 >= -1281
 c292: u_a8 - u_a6 - 788 y_a6_proc_0 >= -1281
 c293: u_a8 - u_a6 - 848 y_a6_proc_2 >= -1281
 c294: u_a8 - u_a6 - 1064 y_a6_proc_1 >= -2580
 c295: u_a8 - u_a6 - 764 y_a6_proc_3 >= -2580
 c296: u_a6 - u_a8 - 1111 y_a8_proc_0 >= -1318
 c297: u_a6 - u_a8 - 757 y_a8_proc_2 >= -1318
 c298: u_a6 - u_a8 - 976 y_a8_proc_1 >= -2617
 c299: u_a6 - u_a8 - 1287 y_a8_proc_3 >= -2617
 c300: u_a9 - u_a6 - 788 y_a6_proc_0 >= -1318
 c301: u_a9 - u_a6 - 848 y_a6_proc_2 >= -1318
 c302: u_a9 - u_a6 - 1064 y_a6_proc_1 >= -2617
 c303: u_a9 - u_a6 - 764 y_a6_proc_3 >= -2617
 c304: u_a6 - u_a9 - 1109 y_a9_proc_0 >= -1281
 c305: u_a6 - u_a9 - 838 y_a9_proc_2 >= -1281
 c306: u_a6 - u_a9 - 1170 y_a9_proc_1 >= -2580
 c307: u_a6 - u_a9 - 927 y_a9_proc_3 >= -2580
 c308: u_a10 - u_a6 - 848 y_a6_proc_2 >= -2617
 c309: u_a10 - u_a6 - 1064 y_a6_proc_1 >= -2617
 c310: u_a10 - u_a6 - 764 y_a6_proc_3 >= -1318
 c311: u_a6 - u_a10 - 1246 y_a10_proc_2 >= -2580
 c312: u_a6 - u_a10 - 1065 y_a10_proc_1 >= -2580
 c313: u_a6 - u_a10 - 507 y_a10_proc_3 >= -1281
 c314: u_a11 - u_a6 - 1064 y_a6_proc_1 >= -1318
 c315: u_a11 - u_a6 - 764 y_a6_proc_3 >= -2617
 c316: u_a6 - u_a11 - 176 y_a11_proc_1 >= -1281
 c317: u_a6 - u_a11 - 1107 y_a11_proc_3 >= -2580
 c318: u_a12 - u_a6 - 788 y_a6_proc_0 >= -1281
 c319: u_a12 - u_a6 - 848 y_a6_proc_2 >= -1281
 c320: u_a12 - u_a6 - 764 y_a6_proc_3 >= -2580
 c321: u_a6 - u_a12 - 1028 y_a12_proc_0 >= -1318
 c322: u_a6 - u_a12 - 913 y_a12_proc_2 >= -1318
 c323: u_a6 - u_a12 - 951 y_a12_proc_3 >= -2617
 c324: u_a13 - u_a6 - 1064 y_a6_proc_1 >= -1318
 c325: u_a6 - u_a13 - 270 y_a13_proc_1 >= -1281
 c326: u_a14 - u_a6 - 788 y_a6_proc_0 >= -1318
 c327: u_a14 - u_a6 - 848 y_a6_proc_2 >= -1318
 c328: u_a14 - u_a6 - 1064 y_a6_proc_1 >= -2617
 c329: u_a6 - u_a14 - 1157 y_a14_proc_0 >= -1281
 c330: u_a6 - u_a14 - 540 y_a14_proc_2 >= -1281
 c331: u_a6 - u_a14 - 695 y_a14_proc_1 >= -2580
 c332: u_a8 - u_a7 - 1299 y_a7_proc_0 >= -2617
 c333: u_a8 - u_a7 - 999 y_a7_proc_1 >= -2617
 c334: u_a8 - u_a7 - 1266 y_a7_proc_3 >= -1318
 c335: u_a7 - u_a8 - 1111 y_a8_proc_0 >= -2580
 c336: u_a7 - u_a8 - 976 y_a8_proc_1 >= -2580
 c337: u_a7 - u_a8 - 1287 y_a8_proc_3 >= -1281
 c338: u_a9 - u_a7 - 1299 y_a7_proc_0 >= -2617
 c339: u_a9 - u_a7 - 999 y_a7_proc_1 >= -2617
 c340: u_a9 - u_a7 - 1266 y_a7_proc_3 >= -1318
 c341: u_a7 - u_a9 - 1109 y_a9_proc_0 >= -2580
 c342: u_a7 - u_a9 - 1170 y_a9_proc_1 >= -2580
 c343: u_a7 - u_a9 - 927 y_a9_proc_3 >= -1281
 c344: u_a10 - u_a7 - 999 y_a7_proc_1 >= -2599
 c345: u_a10 - u_a7 - 1266 y_a7_proc_3 >= -1
 c346: u_a7 - u_a10 - 1065 y_a10_proc_1 >= -2598
 c347: u_a7 - u_a10 - 507 y_a10_proc_3 >= 0
 c348: u_a11 - u_a7 - 999 y_a7_proc_1 >= -1318
 c349: u_a11 - u_a7 - 1266 y_a7_proc_3 >= -1318
 c350: u_a7 - u_a11 - 176 y_a11_proc_1 >= -1281
 c351: u_a7 - u_a11 - 1107 y_a11_proc_3 >= -1281
 c352: u_a12 - u_a7 - 1299 y_a7_proc_0 >= -2580
 c353: u_a12 - u_a7 - 1266 y_a7_proc_3 >= -1281
 c354: u_a7 - u_a12 - 1028 y_a12_proc_0 >= -2617
 c355: u_a7 - u_a12 - 951 y_a12_proc_3 >= -1318
 c356: u_a13 - u_a7 - 999 y_a7_proc_1 >= -1318
 c357: u_a7 - u_a13 - 270 y_a13_proc_1 >= -1281
 c358: u_a14 - u_a7 - 1299 y_a7_proc_0 >= -2617
 c359: u_a14 - u_a7 - 999 y_a7_proc_1 >= -2617
 c360: u_a7 - u_a14 - 1157 y_a14_proc_0 >= -2580
 c361: u_a7 - u_a14 - 695 y_a14_proc_1 >= -2580
 c362: u_a9 - u_a8 - 1111 y_a8_proc_0 >= -2599
 c363: u_a9 - u_a8 - 757 y_a8_proc_2 >= -1
 c364: u_a9 - u_a8 - 976 y_a8_proc_1 >= -2599
 c365: u_a9 - u_a8 - 1287 y_a8_proc_3 >= -2599
 c366: u_a8 - u_a9 - 1109 y_a9_proc_0 >= -2598
 c367: u_a8 - u_a9 - 838 y_a9_proc_2 >= 0
 c368: u_a8 - u_a9 - 1170 y_a9_proc_1 >= -2598
 c369: u_a8 - u_a9 - 927 y_a9_proc_3 >= -2598
 c370: u_a10 - u_a8 - 757 y_a8_proc_2 >= -1318
 c371: u_a10 - u_a8 - 976 y_a8_proc_1 >= -2617
 c372: u_a10 - u_a8 - 1287 y_a8_proc_3 >= -1318
 c373: u_a8 - u_a10 - 1246 y_a10_proc_2 >= -1281
 c374: u_a8 - u_a10 - 1065 y_a10_proc_1 >= -2580
 c375: u_a8 - u_a10 - 507 y_a10_proc_3 >= -1281
 c376: u_a11 - u_a8 - 976 y_a8_proc_1 >= -1318
 c377: u_a11 - u_a8 - 1287 y_a8_proc_3 >= -2617
 c378: u_a8 - u_a11 - 176 y_a11_proc_1 >= -1281
 c379: u_a8 - u_a11 - 1107 y_a11_proc_3 >= -2580
 c380: u_a12 - u_a8 - 1111 y_a8_proc_0 >= -2599
 c381: u_a12 - u_a8 - 757 y_a8_proc_2 >= -1
 c382: u_a12 - u_a8 - 1287 y_a8_proc_3 >= -2599
 c383: u_a8 - u_a12 - 1028 y_a12_proc_0 >= -2598
 c384: u_a8 - u_a12 - 913 y_a12_proc_2 >= 0
 c385: u_a8 - u_a12 - 951 y_a12_proc_3 >= -2598
 c386: u_a13 - u_a8 - 976 y_a8_proc_1 >= -1318
 c387: u_a8 - u_a13 - 270 y_a13_proc_1 >= -1281
 c388: u_a14 - u_a8 - 1111 y_a8_proc_0 >= -2598
 c389: u_a14 - u_a8 - 757 y_a8_proc_2 >= 0
 c390: u_a14 - u_a8 - 976 y_a8_proc_1 >= -2598
 c391: u_a8 - u_a14 - 1157 y_a14_proc_0 >= -2599
 c392: u_a8 - u_a14 - 540 y_a14_proc_2 >= -1
 c393: u_a8 - u_a14 - 695 y_a14_proc_1 >= -2599
 c394: u_a10 - u_a9 - 838 y_a9_proc_2 >= -1281
 c395: u_a10 - u_a9 - 1170 y_a9_proc_1 >= -2580
 c396: u_a10 - u_a9 - 927 y_a9_proc_3 >= -1281
 c397: u_a9 - u_a10 - 1246 y_a10_proc_2 >= -1318
 c398: u_a9 - u_a10 - 1065 y_a10_proc_1 >= -2617
 c399: u_a9 - u_a10 - 507 y_a10_proc_3 >= -1318
 c400: u_a11 - u_a9 - 1170 y_a9_proc_1 >= -1281
 c401: u_a11 - u_a9 - 927 y_a9_proc_3 >= -2580
 c402: u_a9 - u_a11 - 176 y_a11_proc_1 >= -1318
 c403: u_a9 - u_a11 - 1107 y_a11_proc_3 >= -2617
 c404: u_a12 - u_a9 - 1109 y_a9_proc_0 >= -2598
 c405: u_a12 - u_a9 - 838 y_a9_proc_2 >= 0
 c406: u_a12 - u_a9 - 927 y_a9_proc_3 >= -2598
 c407: u_a9 - u_a12 - 1028 y_a12_proc_0 >= -2599
 c408: u_a9 - u_a12 - 913 y_a12_proc_2 >= -1
 c409: u_a9 - u_a12 - 951 y_a12_proc_3 >= -2599
 c410: u_a13 - u_a9 - 1170 y_a9_proc_1 >= -1318
 c411: u_a9 - u_a13 - 270 y_a13_proc_1 >= -1281
 c412: u_a14 - u_a9 - 1109 y_a9_proc_0 >= -2598
 c413: u_a14 - u_a9 - 838 y_a9_proc_2 >= 0
 c414: u_a14 - u_a9 - 1170 y_a9_proc_1 >= -2598
 c415: u_a9 - u_a14 - 1157 y_a14_proc_0 >= -2599
 c416: u_a9 - u_a14 - 540 y_a14_proc_2 >= -1
 c417: u_a9 - u_a14 - 695 y_a14_proc_1 >= -2599
 c418: u_a11 - u_a10 - 1065 y_a10_proc_1 >= -1318
 c419: u_a11 - u_a10 - 507 y_a10_proc_3 >= -1318
 c420: u_a10 - u_a11 - 176 y_a11_proc_1 >= -1281
 c421: u_a10 - u_a11 - 1107 y_a11_proc_3 >= -1281
 c422: u_a12 - u_a10 - 1246 y_a10_proc_2 >= -1318
 c423: u_a12 - u_a10 - 507 y_a10_proc_3 >= -1318
 c424: u_a10 - u_a12 - 913 y_a12_proc_2 >= -1281
 c425: u_a10 - u_a12 - 951 y_a12_proc_3 >= -1281
 c426: u_a13 - u_a10 - 1065 y_a10_proc_1 >= -1318
 c427: u_a10 - u_a13 - 270 y_a13_proc_1 >= -1281
 c428: u_a14 - u_a10 - 1246 y_a10_proc_2 >= -1318
 c429: u_a14 - u_a10 - 1065 y_a10_proc_1 >= -2617
 c430: u_a10 - u_a14 - 540 y_a14_proc_2 >= -1281
 c431: u_a10 - u_a14 - 695 y_a14_proc_1 >= -2580
 c432: u_a12 - u_a11 - 1107 y_a11_proc_3 >= -2617
 c433: u_a11 - u_a12 - 951 y_a12_proc_3 >= -2580
 c434: u_a13 - u_a11 - 176 y_a11_proc_1 >= -1
 c435: u_a11 - u_a13 - 270 y_a13_proc_1 >= 0
 c436: u_a14 - u_a11 - 176 y_a11_proc_1 >= -1318
 c437: u_a11 - u_a14 - 695 y_a14_proc_1 >= -1281
 c438: u_a14 - u_a12 - 1028 y_a12_proc_0 >= -2598
 c439: u_a14 - u_a12 - 913 y_a12_proc_2 >= 0
 c440: u_a12 - u_a14 - 1157 y_a14_proc_0 >= -2599
 c441: u_a12 - u_a14 - 540 y_a14_proc_2 >= -1
 c442: u_a14 - u_a13 - 270 y_a13_proc_1 >= -1318
 c443: u_a13 - u_a14 - 695 y_a14_proc_1 >= -1281

Bounds
End
